nK = 1640;
nT = 8;
nI = 21;
L = 35;
TT = 406;
np = 1;
nc = 3;
b = [39, 46, 58, 49, 64, 21, 48, 31, 46, 32, 56, 47, 26, 31, 46, 69, 48, 24, 42, 35, 47];
d = [135, 69, 87, 149, 130, 47, 87, 90, 131, 125, 100, 142, 68, 71, 111, 139, 124, 100, 72, 122, 140];
m = [2.3, 1.2, 1.7, 1.9, 1.2, 1.5, 1.6, 2.1, 1.3, 2.2, 2.2, 2.2, 1.3, 2.2, 2, 1.5, 1.1, 1.4, 1.8, 1.1, 1.8];
pt = [0.33, 0.35, 0.35, 0.25, 0.3, 0.24, 0.25, 0.25];
st = [13.53, 18.2, 19.95, 12.75, 18, 12.48, 11, 11.25];
arc = {<1, 0, 1, 1, 0, 0, 0, [1, 1, 1, 1, 1, 1, 1, 1]>, <2, 1, 2, 1, 0, 0, 0, [1, 1, 1, 1, 1, 1, 1, 1]>, <3, 2, 3, 1, 0, 0, 0, [1, 1, 1, 1, 1, 1, 1, 1]>, <4, 3, 4, 1, 0, 0, 0, [1, 1, 1, 1, 1, 1, 1, 1]>, <5, 4, 5, 1, 0, 0, 0, [1, 1, 1, 1, 1, 1, 1, 1]>, <6, 5, 6, 1, 0, 0, 0, [1, 1, 1, 1, 1, 1, 1, 1]>, <7, 6, 7, 1, 0, 0, 0, [1, 1, 1, 1, 1, 1, 1, 1]>, <8, 7, 8, 1, 0, 0, 0, [1, 1, 1, 1, 1, 1, 1, 1]>, <9, 8, 9, 1, 0, 0, 0, [1, 1, 1, 1, 1, 1, 1, 1]>, <10, 9, 10, 1, 0, 0, 0, [1, 1, 1, 1, 1, 1, 1, 1]>, <11, 10, 11, 1, 0, 0, 0, [1, 1, 1, 1, 1, 1, 1, 1]>, <12, 11, 12, 1, 0, 0, 0, [1, 1, 1, 1, 1, 1, 1, 1]>, <13, 12, 13, 1, 0, 0, 0, [1, 1, 1, 1, 1, 1, 1, 1]>, <14, 13, 14, 1, 0, 0, 0, [1, 1, 1, 1, 1, 1, 1, 1]>, <15, 14, 15, 1, 0, 0, 0, [1, 1, 1, 1, 1, 1, 1, 1]>, <16, 15, 16, 1, 0, 0, 0, [1, 1, 1, 1, 1, 1, 1, 1]>, <17, 16, 17, 1, 0, 0, 0, [1, 1, 1, 1, 1, 1, 1, 1]>, <18, 17, 18, 1, 0, 0, 0, [1, 1, 1, 1, 1, 1, 1, 1]>, <19, 18, 19, 1, 0, 0, 0, [1, 1, 1, 1, 1, 1, 1, 1]>, <20, 19, 20, 1, 0, 0, 0, [1, 1, 1, 1, 1, 1, 1, 1]>, <21, 20, 21, 1, 0, 0, 0, [1, 1, 1, 1, 1, 1, 1, 1]>, <22, 21, 22, 1, 0, 0, 0, [1, 1, 1, 1, 1, 1, 1, 1]>, <23, 22, 23, 1, 0, 0, 0, [1, 1, 1, 1, 1, 1, 1, 1]>, <24, 23, 24, 1, 0, 0, 0, [1, 1, 1, 1, 1, 1, 1, 1]>, <25, 24, 25, 1, 0, 0, 0, [1, 1, 1, 1, 1, 1, 1, 1]>, <26, 25, 26, 1, 0, 0, 0, [1, 1, 1, 1, 1, 1, 1, 1]>, <27, 26, 27, 1, 0, 0, 0, [1, 1, 1, 1, 1, 1, 1, 1]>, <28, 27, 28, 1, 0, 0, 0, [1, 1, 1, 1, 1, 1, 1, 1]>, <29, 28, 29, 1, 0, 0, 0, [1, 1, 1, 1, 1, 1, 1, 1]>, <30, 29, 30, 1, 0, 0, 0, [1, 1, 1, 1, 1, 1, 1, 1]>, <31, 30, 31, 1, 0, 0, 0, [1, 1, 1, 1, 1, 1, 1, 1]>, <32, 31, 32, 1, 0, 0, 0, [1, 1, 1, 1, 1, 1, 1, 1]>, <33, 32, 33, 1, 0, 0, 0, [1, 1, 1, 1, 1, 1, 1, 1]>, <34, 33, 34, 1, 0, 0, 0, [1, 1, 1, 1, 1, 1, 1, 1]>, <35, 34, 35, 1, 0, 0, 0, [1, 1, 1, 1, 1, 1, 1, 1]>, <36, 3, 17, 14, 1, 0, 0, [0, 0, 0, 0, 1, 1, 0, 0]>, <37, 4, 18, 14, 1, 0, 0, [0, 0, 0, 0, 1, 1, 0, 0]>, <38, 5, 19, 14, 1, 0, 0, [0, 0, 0, 0, 1, 1, 0, 0]>, <39, 6, 20, 14, 1, 0, 0, [0, 0, 0, 0, 1, 1, 0, 0]>, <40, 12, 26, 14, 1, 0, 0, [0, 0, 0, 0, 1, 1, 0, 0]>, <41, 13, 27, 14, 1, 0, 0, [0, 0, 0, 0, 1, 1, 0, 0]>, <42, 14, 28, 14, 1, 0, 0, [0, 0, 0, 0, 1, 1, 0, 0]>, <43, 15, 29, 14, 1, 0, 0, [0, 0, 0, 0, 1, 1, 0, 0]>, <44, 17, 31, 14, 1, 0, 0, [0, 0, 0, 0, 1, 1, 0, 0]>, <45, 18, 32, 14, 1, 0, 0, [0, 0, 0, 0, 1, 1, 0, 0]>, <46, 19, 33, 14, 1, 0, 0, [0, 0, 0, 0, 1, 1, 0, 0]>, <47, 20, 34, 14, 1, 0, 0, [0, 0, 0, 0, 1, 1, 0, 0]>, <48, 21, 35, 14, 1, 0, 0, [0, 0, 0, 0, 1, 1, 0, 0]>, <49, 5, 14, 9, 2, 0, 0, [0, 0, 1, 1, 0, 0, 0, 0]>, <50, 6, 15, 9, 2, 0, 0, [0, 0, 1, 1, 0, 0, 0, 0]>, <51, 14, 23, 9, 2, 0, 0, [0, 0, 1, 1, 0, 0, 0, 0]>, <52, 15, 24, 9, 2, 0, 0, [0, 0, 1, 1, 0, 0, 0, 0]>, <53, 22, 31, 9, 2, 0, 0, [0, 0, 1, 1, 0, 0, 0, 0]>, <54, 23, 32, 9, 2, 0, 0, [0, 0, 1, 1, 0, 0, 0, 0]>, <55, 24, 33, 9, 2, 0, 0, [0, 0, 1, 1, 0, 0, 0, 0]>, <56, 3, 17, 14, 3, 1, 0, [1, 0, 0, 0, 0, 0, 0, 1]>, <57, 4, 18, 14, 3, 1, 0, [1, 0, 0, 0, 0, 0, 0, 1]>, <58, 5, 19, 14, 3, 1, 0, [1, 0, 0, 0, 0, 0, 0, 1]>, <59, 6, 20, 14, 3, 1, 0, [1, 0, 0, 0, 0, 0, 0, 1]>, <60, 12, 26, 14, 3, 1, 0, [1, 0, 0, 0, 0, 0, 0, 1]>, <61, 13, 27, 14, 3, 1, 0, [1, 0, 0, 0, 0, 0, 0, 1]>, <62, 14, 28, 14, 3, 1, 0, [1, 0, 0, 0, 0, 0, 0, 1]>, <63, 15, 29, 14, 3, 1, 0, [1, 0, 0, 0, 0, 0, 0, 1]>, <64, 17, 31, 14, 3, 1, 0, [1, 0, 0, 0, 0, 0, 0, 1]>, <65, 18, 32, 14, 3, 1, 0, [1, 0, 0, 0, 0, 0, 0, 1]>, <66, 19, 33, 14, 3, 1, 0, [1, 0, 0, 0, 0, 0, 0, 1]>, <67, 20, 34, 14, 3, 1, 0, [1, 0, 0, 0, 0, 0, 0, 1]>, <68, 21, 35, 14, 3, 1, 0, [1, 0, 0, 0, 0, 0, 0, 1]>, <69, 5, 14, 9, 4, 0, 0, [0, 1, 1, 0, 0, 0, 0, 0]>, <70, 6, 15, 9, 4, 0, 0, [0, 1, 1, 0, 0, 0, 0, 0]>, <71, 14, 23, 9, 4, 0, 0, [0, 1, 1, 0, 0, 0, 0, 0]>, <72, 15, 24, 9, 4, 0, 0, [0, 1, 1, 0, 0, 0, 0, 0]>, <73, 22, 31, 9, 4, 0, 0, [0, 1, 1, 0, 0, 0, 0, 0]>, <74, 23, 32, 9, 4, 0, 0, [0, 1, 1, 0, 0, 0, 0, 0]>, <75, 24, 33, 9, 4, 0, 0, [0, 1, 1, 0, 0, 0, 0, 0]>, <76, 5, 15, 10, 5, 0, 0, [0, 0, 0, 0, 1, 1, 0, 0]>, <77, 6, 16, 10, 5, 0, 0, [0, 0, 0, 0, 1, 1, 0, 0]>, <78, 14, 24, 10, 5, 0, 0, [0, 0, 0, 0, 1, 1, 0, 0]>, <79, 15, 25, 10, 5, 0, 0, [0, 0, 0, 0, 1, 1, 0, 0]>, <80, 21, 31, 10, 5, 0, 0, [0, 0, 0, 0, 1, 1, 0, 0]>, <81, 22, 32, 10, 5, 0, 0, [0, 0, 0, 0, 1, 1, 0, 0]>, <82, 23, 33, 10, 5, 0, 0, [0, 0, 0, 0, 1, 1, 0, 0]>, <83, 24, 34, 10, 5, 0, 0, [0, 0, 0, 0, 1, 1, 0, 0]>, <84, 4, 17, 13, 6, 0, 0, [0, 0, 0, 0, 0, 1, 1, 0]>, <85, 5, 18, 13, 6, 0, 0, [0, 0, 0, 0, 0, 1, 1, 0]>, <86, 6, 19, 13, 6, 0, 0, [0, 0, 0, 0, 0, 1, 1, 0]>, <87, 13, 26, 13, 6, 0, 0, [0, 0, 0, 0, 0, 1, 1, 0]>, <88, 14, 27, 13, 6, 0, 0, [0, 0, 0, 0, 0, 1, 1, 0]>, <89, 15, 28, 13, 6, 0, 0, [0, 0, 0, 0, 0, 1, 1, 0]>, <90, 18, 31, 13, 6, 0, 0, [0, 0, 0, 0, 0, 1, 1, 0]>, <91, 19, 32, 13, 6, 0, 0, [0, 0, 0, 0, 0, 1, 1, 0]>, <92, 20, 33, 13, 6, 0, 0, [0, 0, 0, 0, 0, 1, 1, 0]>, <93, 21, 34, 13, 6, 0, 0, [0, 0, 0, 0, 0, 1, 1, 0]>, <94, 22, 35, 13, 6, 0, 0, [0, 0, 0, 0, 0, 1, 1, 0]>, <95, 4, 17, 13, 7, 1, 0, [1, 0, 0, 0, 0, 0, 0, 1]>, <96, 5, 18, 13, 7, 1, 0, [1, 0, 0, 0, 0, 0, 0, 1]>, <97, 6, 19, 13, 7, 1, 0, [1, 0, 0, 0, 0, 0, 0, 1]>, <98, 13, 26, 13, 7, 1, 0, [1, 0, 0, 0, 0, 0, 0, 1]>, <99, 14, 27, 13, 7, 1, 0, [1, 0, 0, 0, 0, 0, 0, 1]>, <100, 15, 28, 13, 7, 1, 0, [1, 0, 0, 0, 0, 0, 0, 1]>, <101, 18, 31, 13, 7, 1, 0, [1, 0, 0, 0, 0, 0, 0, 1]>, <102, 19, 32, 13, 7, 1, 0, [1, 0, 0, 0, 0, 0, 0, 1]>, <103, 20, 33, 13, 7, 1, 0, [1, 0, 0, 0, 0, 0, 0, 1]>, <104, 21, 34, 13, 7, 1, 0, [1, 0, 0, 0, 0, 0, 0, 1]>, <105, 22, 35, 13, 7, 1, 0, [1, 0, 0, 0, 0, 0, 0, 1]>, <106, 5, 15, 10, 8, 0, 0, [0, 0, 0, 0, 0, 0, 1, 1]>, <107, 6, 16, 10, 8, 0, 0, [0, 0, 0, 0, 0, 0, 1, 1]>, <108, 14, 24, 10, 8, 0, 0, [0, 0, 0, 0, 0, 0, 1, 1]>, <109, 15, 25, 10, 8, 0, 0, [0, 0, 0, 0, 0, 0, 1, 1]>, <110, 21, 31, 10, 8, 0, 0, [0, 0, 0, 0, 0, 0, 1, 1]>, <111, 22, 32, 10, 8, 0, 0, [0, 0, 0, 0, 0, 0, 1, 1]>, <112, 23, 33, 10, 8, 0, 0, [0, 0, 0, 0, 0, 0, 1, 1]>, <113, 24, 34, 10, 8, 0, 0, [0, 0, 0, 0, 0, 0, 1, 1]>, <114, 5, 14, 9, 9, 0, 0, [0, 0, 0, 0, 0, 1, 1, 0]>, <115, 6, 15, 9, 9, 0, 0, [0, 0, 0, 0, 0, 1, 1, 0]>, <116, 14, 23, 9, 9, 0, 0, [0, 0, 0, 0, 0, 1, 1, 0]>, <117, 15, 24, 9, 9, 0, 0, [0, 0, 0, 0, 0, 1, 1, 0]>, <118, 22, 31, 9, 9, 0, 0, [0, 0, 0, 0, 0, 1, 1, 0]>, <119, 23, 32, 9, 9, 0, 0, [0, 0, 0, 0, 0, 1, 1, 0]>, <120, 24, 33, 9, 9, 0, 0, [0, 0, 0, 0, 0, 1, 1, 0]>, <121, 2, 17, 15, 10, 1, 0, [0, 0, 0, 0, 0, 0, 1, 1]>, <122, 3, 18, 15, 10, 1, 0, [0, 0, 0, 0, 0, 0, 1, 1]>, <123, 4, 19, 15, 10, 1, 0, [0, 0, 0, 0, 0, 0, 1, 1]>, <124, 5, 20, 15, 10, 1, 0, [0, 0, 0, 0, 0, 0, 1, 1]>, <125, 6, 21, 15, 10, 1, 0, [0, 0, 0, 0, 0, 0, 1, 1]>, <126, 11, 26, 15, 10, 1, 0, [0, 0, 0, 0, 0, 0, 1, 1]>, <127, 12, 27, 15, 10, 1, 0, [0, 0, 0, 0, 0, 0, 1, 1]>, <128, 13, 28, 15, 10, 1, 0, [0, 0, 0, 0, 0, 0, 1, 1]>, <129, 14, 29, 15, 10, 1, 0, [0, 0, 0, 0, 0, 0, 1, 1]>, <130, 15, 30, 15, 10, 1, 0, [0, 0, 0, 0, 0, 0, 1, 1]>, <131, 16, 31, 15, 10, 1, 0, [0, 0, 0, 0, 0, 0, 1, 1]>, <132, 17, 32, 15, 10, 1, 0, [0, 0, 0, 0, 0, 0, 1, 1]>, <133, 18, 33, 15, 10, 1, 0, [0, 0, 0, 0, 0, 0, 1, 1]>, <134, 19, 34, 15, 10, 1, 0, [0, 0, 0, 0, 0, 0, 1, 1]>, <135, 20, 35, 15, 10, 1, 0, [0, 0, 0, 0, 0, 0, 1, 1]>, <136, 2, 17, 15, 11, 0, 1, [1, 1, 0, 0, 0, 0, 0, 0]>, <137, 3, 18, 15, 11, 0, 1, [1, 1, 0, 0, 0, 0, 0, 0]>, <138, 4, 19, 15, 11, 0, 1, [1, 1, 0, 0, 0, 0, 0, 0]>, <139, 5, 20, 15, 11, 0, 1, [1, 1, 0, 0, 0, 0, 0, 0]>, <140, 6, 21, 15, 11, 0, 1, [1, 1, 0, 0, 0, 0, 0, 0]>, <141, 11, 26, 15, 11, 0, 1, [1, 1, 0, 0, 0, 0, 0, 0]>, <142, 12, 27, 15, 11, 0, 1, [1, 1, 0, 0, 0, 0, 0, 0]>, <143, 13, 28, 15, 11, 0, 1, [1, 1, 0, 0, 0, 0, 0, 0]>, <144, 14, 29, 15, 11, 0, 1, [1, 1, 0, 0, 0, 0, 0, 0]>, <145, 15, 30, 15, 11, 0, 1, [1, 1, 0, 0, 0, 0, 0, 0]>, <146, 16, 31, 15, 11, 0, 1, [1, 1, 0, 0, 0, 0, 0, 0]>, <147, 17, 32, 15, 11, 0, 1, [1, 1, 0, 0, 0, 0, 0, 0]>, <148, 18, 33, 15, 11, 0, 1, [1, 1, 0, 0, 0, 0, 0, 0]>, <149, 19, 34, 15, 11, 0, 1, [1, 1, 0, 0, 0, 0, 0, 0]>, <150, 20, 35, 15, 11, 0, 1, [1, 1, 0, 0, 0, 0, 0, 0]>, <151, 5, 14, 9, 12, 0, 0, [0, 0, 0, 0, 0, 0, 1, 1]>, <152, 6, 15, 9, 12, 0, 0, [0, 0, 0, 0, 0, 0, 1, 1]>, <153, 14, 23, 9, 12, 0, 0, [0, 0, 0, 0, 0, 0, 1, 1]>, <154, 15, 24, 9, 12, 0, 0, [0, 0, 0, 0, 0, 0, 1, 1]>, <155, 22, 31, 9, 12, 0, 0, [0, 0, 0, 0, 0, 0, 1, 1]>, <156, 23, 32, 9, 12, 0, 0, [0, 0, 0, 0, 0, 0, 1, 1]>, <157, 24, 33, 9, 12, 0, 0, [0, 0, 0, 0, 0, 0, 1, 1]>, <158, 5, 16, 11, 13, 0, 1, [0, 0, 0, 0, 0, 1, 1, 0]>, <159, 6, 17, 11, 13, 0, 1, [0, 0, 0, 0, 0, 1, 1, 0]>, <160, 14, 25, 11, 13, 0, 1, [0, 0, 0, 0, 0, 1, 1, 0]>, <161, 15, 26, 11, 13, 0, 1, [0, 0, 0, 0, 0, 1, 1, 0]>, <162, 20, 31, 11, 13, 0, 1, [0, 0, 0, 0, 0, 1, 1, 0]>, <163, 21, 32, 11, 13, 0, 1, [0, 0, 0, 0, 0, 1, 1, 0]>, <164, 22, 33, 11, 13, 0, 1, [0, 0, 0, 0, 0, 1, 1, 0]>, <165, 23, 34, 11, 13, 0, 1, [0, 0, 0, 0, 0, 1, 1, 0]>, <166, 24, 35, 11, 13, 0, 1, [0, 0, 0, 0, 0, 1, 1, 0]>, <167, 3, 17, 14, 14, 0, 0, [0, 0, 1, 1, 0, 0, 0, 0]>, <168, 4, 18, 14, 14, 0, 0, [0, 0, 1, 1, 0, 0, 0, 0]>, <169, 5, 19, 14, 14, 0, 0, [0, 0, 1, 1, 0, 0, 0, 0]>, <170, 6, 20, 14, 14, 0, 0, [0, 0, 1, 1, 0, 0, 0, 0]>, <171, 12, 26, 14, 14, 0, 0, [0, 0, 1, 1, 0, 0, 0, 0]>, <172, 13, 27, 14, 14, 0, 0, [0, 0, 1, 1, 0, 0, 0, 0]>, <173, 14, 28, 14, 14, 0, 0, [0, 0, 1, 1, 0, 0, 0, 0]>, <174, 15, 29, 14, 14, 0, 0, [0, 0, 1, 1, 0, 0, 0, 0]>, <175, 17, 31, 14, 14, 0, 0, [0, 0, 1, 1, 0, 0, 0, 0]>, <176, 18, 32, 14, 14, 0, 0, [0, 0, 1, 1, 0, 0, 0, 0]>, <177, 19, 33, 14, 14, 0, 0, [0, 0, 1, 1, 0, 0, 0, 0]>, <178, 20, 34, 14, 14, 0, 0, [0, 0, 1, 1, 0, 0, 0, 0]>, <179, 21, 35, 14, 14, 0, 0, [0, 0, 1, 1, 0, 0, 0, 0]>, <180, 5, 15, 10, 15, 0, 1, [0, 1, 1, 0, 0, 0, 0, 0]>, <181, 6, 16, 10, 15, 0, 1, [0, 1, 1, 0, 0, 0, 0, 0]>, <182, 14, 24, 10, 15, 0, 1, [0, 1, 1, 0, 0, 0, 0, 0]>, <183, 15, 25, 10, 15, 0, 1, [0, 1, 1, 0, 0, 0, 0, 0]>, <184, 21, 31, 10, 15, 0, 1, [0, 1, 1, 0, 0, 0, 0, 0]>, <185, 22, 32, 10, 15, 0, 1, [0, 1, 1, 0, 0, 0, 0, 0]>, <186, 23, 33, 10, 15, 0, 1, [0, 1, 1, 0, 0, 0, 0, 0]>, <187, 24, 34, 10, 15, 0, 1, [0, 1, 1, 0, 0, 0, 0, 0]>, <188, 5, 17, 12, 16, 1, 0, [0, 0, 0, 1, 1, 0, 0, 0]>, <189, 6, 18, 12, 16, 1, 0, [0, 0, 0, 1, 1, 0, 0, 0]>, <190, 14, 26, 12, 16, 1, 0, [0, 0, 0, 1, 1, 0, 0, 0]>, <191, 15, 27, 12, 16, 1, 0, [0, 0, 0, 1, 1, 0, 0, 0]>, <192, 19, 31, 12, 16, 1, 0, [0, 0, 0, 1, 1, 0, 0, 0]>, <193, 20, 32, 12, 16, 1, 0, [0, 0, 0, 1, 1, 0, 0, 0]>, <194, 21, 33, 12, 16, 1, 0, [0, 0, 0, 1, 1, 0, 0, 0]>, <195, 22, 34, 12, 16, 1, 0, [0, 0, 0, 1, 1, 0, 0, 0]>, <196, 23, 35, 12, 16, 1, 0, [0, 0, 0, 1, 1, 0, 0, 0]>, <197, 2, 17, 15, 17, 0, 1, [1, 1, 0, 0, 0, 0, 0, 0]>, <198, 3, 18, 15, 17, 0, 1, [1, 1, 0, 0, 0, 0, 0, 0]>, <199, 4, 19, 15, 17, 0, 1, [1, 1, 0, 0, 0, 0, 0, 0]>, <200, 5, 20, 15, 17, 0, 1, [1, 1, 0, 0, 0, 0, 0, 0]>, <201, 6, 21, 15, 17, 0, 1, [1, 1, 0, 0, 0, 0, 0, 0]>, <202, 11, 26, 15, 17, 0, 1, [1, 1, 0, 0, 0, 0, 0, 0]>, <203, 12, 27, 15, 17, 0, 1, [1, 1, 0, 0, 0, 0, 0, 0]>, <204, 13, 28, 15, 17, 0, 1, [1, 1, 0, 0, 0, 0, 0, 0]>, <205, 14, 29, 15, 17, 0, 1, [1, 1, 0, 0, 0, 0, 0, 0]>, <206, 15, 30, 15, 17, 0, 1, [1, 1, 0, 0, 0, 0, 0, 0]>, <207, 16, 31, 15, 17, 0, 1, [1, 1, 0, 0, 0, 0, 0, 0]>, <208, 17, 32, 15, 17, 0, 1, [1, 1, 0, 0, 0, 0, 0, 0]>, <209, 18, 33, 15, 17, 0, 1, [1, 1, 0, 0, 0, 0, 0, 0]>, <210, 19, 34, 15, 17, 0, 1, [1, 1, 0, 0, 0, 0, 0, 0]>, <211, 20, 35, 15, 17, 0, 1, [1, 1, 0, 0, 0, 0, 0, 0]>, <212, 3, 17, 14, 18, 0, 0, [0, 0, 0, 1, 1, 0, 0, 0]>, <213, 4, 18, 14, 18, 0, 0, [0, 0, 0, 1, 1, 0, 0, 0]>, <214, 5, 19, 14, 18, 0, 0, [0, 0, 0, 1, 1, 0, 0, 0]>, <215, 6, 20, 14, 18, 0, 0, [0, 0, 0, 1, 1, 0, 0, 0]>, <216, 12, 26, 14, 18, 0, 0, [0, 0, 0, 1, 1, 0, 0, 0]>, <217, 13, 27, 14, 18, 0, 0, [0, 0, 0, 1, 1, 0, 0, 0]>, <218, 14, 28, 14, 18, 0, 0, [0, 0, 0, 1, 1, 0, 0, 0]>, <219, 15, 29, 14, 18, 0, 0, [0, 0, 0, 1, 1, 0, 0, 0]>, <220, 17, 31, 14, 18, 0, 0, [0, 0, 0, 1, 1, 0, 0, 0]>, <221, 18, 32, 14, 18, 0, 0, [0, 0, 0, 1, 1, 0, 0, 0]>, <222, 19, 33, 14, 18, 0, 0, [0, 0, 0, 1, 1, 0, 0, 0]>, <223, 20, 34, 14, 18, 0, 0, [0, 0, 0, 1, 1, 0, 0, 0]>, <224, 21, 35, 14, 18, 0, 0, [0, 0, 0, 1, 1, 0, 0, 0]>, <225, 5, 14, 9, 19, 1, 0, [1, 1, 0, 0, 0, 0, 0, 0]>, <226, 6, 15, 9, 19, 1, 0, [1, 1, 0, 0, 0, 0, 0, 0]>, <227, 14, 23, 9, 19, 1, 0, [1, 1, 0, 0, 0, 0, 0, 0]>, <228, 15, 24, 9, 19, 1, 0, [1, 1, 0, 0, 0, 0, 0, 0]>, <229, 22, 31, 9, 19, 1, 0, [1, 1, 0, 0, 0, 0, 0, 0]>, <230, 23, 32, 9, 19, 1, 0, [1, 1, 0, 0, 0, 0, 0, 0]>, <231, 24, 33, 9, 19, 1, 0, [1, 1, 0, 0, 0, 0, 0, 0]>, <232, 2, 17, 15, 20, 0, 1, [1, 1, 0, 0, 0, 0, 0, 0]>, <233, 3, 18, 15, 20, 0, 1, [1, 1, 0, 0, 0, 0, 0, 0]>, <234, 4, 19, 15, 20, 0, 1, [1, 1, 0, 0, 0, 0, 0, 0]>, <235, 5, 20, 15, 20, 0, 1, [1, 1, 0, 0, 0, 0, 0, 0]>, <236, 6, 21, 15, 20, 0, 1, [1, 1, 0, 0, 0, 0, 0, 0]>, <237, 11, 26, 15, 20, 0, 1, [1, 1, 0, 0, 0, 0, 0, 0]>, <238, 12, 27, 15, 20, 0, 1, [1, 1, 0, 0, 0, 0, 0, 0]>, <239, 13, 28, 15, 20, 0, 1, [1, 1, 0, 0, 0, 0, 0, 0]>, <240, 14, 29, 15, 20, 0, 1, [1, 1, 0, 0, 0, 0, 0, 0]>, <241, 15, 30, 15, 20, 0, 1, [1, 1, 0, 0, 0, 0, 0, 0]>, <242, 16, 31, 15, 20, 0, 1, [1, 1, 0, 0, 0, 0, 0, 0]>, <243, 17, 32, 15, 20, 0, 1, [1, 1, 0, 0, 0, 0, 0, 0]>, <244, 18, 33, 15, 20, 0, 1, [1, 1, 0, 0, 0, 0, 0, 0]>, <245, 19, 34, 15, 20, 0, 1, [1, 1, 0, 0, 0, 0, 0, 0]>, <246, 20, 35, 15, 20, 0, 1, [1, 1, 0, 0, 0, 0, 0, 0]>, <247, 4, 17, 13, 21, 0, 0, [0, 0, 1, 1, 0, 0, 0, 0]>, <248, 5, 18, 13, 21, 0, 0, [0, 0, 1, 1, 0, 0, 0, 0]>, <249, 6, 19, 13, 21, 0, 0, [0, 0, 1, 1, 0, 0, 0, 0]>, <250, 13, 26, 13, 21, 0, 0, [0, 0, 1, 1, 0, 0, 0, 0]>, <251, 14, 27, 13, 21, 0, 0, [0, 0, 1, 1, 0, 0, 0, 0]>, <252, 15, 28, 13, 21, 0, 0, [0, 0, 1, 1, 0, 0, 0, 0]>, <253, 18, 31, 13, 21, 0, 0, [0, 0, 1, 1, 0, 0, 0, 0]>, <254, 19, 32, 13, 21, 0, 0, [0, 0, 1, 1, 0, 0, 0, 0]>, <255, 20, 33, 13, 21, 0, 0, [0, 0, 1, 1, 0, 0, 0, 0]>, <256, 21, 34, 13, 21, 0, 0, [0, 0, 1, 1, 0, 0, 0, 0]>, <257, 22, 35, 13, 21, 0, 0, [0, 0, 1, 1, 0, 0, 0, 0]>};
